(declare-fun cmp.i.i_22_43 () (_ BitVec 1))
(declare-fun i25.i.i_22_41 () (_ BitVec 64))
(declare-fun i23.i.i_22_39 () (_ BitVec 64))
(declare-fun i24.i.i_22_40 () (_ BitVec 64))
(declare-fun dst_reg_22_9 () (_ BitVec 64))
(declare-fun dst_reg_22_8 () (_ BitVec 64))
(declare-fun i20.i.i_22_34 () (_ BitVec 64))
(declare-fun and6.i.i.i_22_38 () (_ BitVec 64))
(declare-fun i18.i.i_22_33 () (_ BitVec 64))
(declare-fun and.i.i.i_22_36 () (_ BitVec 64))
(declare-fun dst_reg_22_5 () (_ BitVec 64))
(declare-fun dst_reg_22_4 () (_ BitVec 64))
(declare-fun src_reg1.sroa.18.0.copyload_22_32 () (_ BitVec 64))
(declare-fun src_reg_22_23 () (_ BitVec 64))
(declare-fun src_reg1.sroa.13.0.copyload_22_31 () (_ BitVec 64))
(declare-fun src_reg_22_22 () (_ BitVec 64))
(declare-fun src_reg1.sroa.6.0.copyload_22_30 () (_ BitVec 64))
(declare-fun src_reg_22_19 () (_ BitVec 64))
(declare-fun src_reg_22_27 () (_ BitVec 8))
(declare-fun src_reg_22_26 () (_ BitVec 32))
(declare-fun src_reg_22_25 () (_ BitVec 32))
(declare-fun src_reg_22_24 () (_ BitVec 32))
(declare-fun src_reg_22_21 () (_ BitVec 64))
(declare-fun src_reg_22_20 () (_ BitVec 64))
(declare-fun src_reg_22_18 () (_ BitVec 64))
(declare-fun src_reg_22_17 () (_ BitVec 32))
(declare-fun src_reg_22_16 () (_ BitVec 32))
(declare-fun src_reg_22_15 () (_ BitVec 32))
(declare-fun src_reg_22_14 () (_ BitVec 32))
(declare-fun dst_reg_22_13 () (_ BitVec 8))
(declare-fun dst_reg_22_12 () (_ BitVec 32))
(declare-fun dst_reg_22_11 () (_ BitVec 32))
(declare-fun dst_reg_22_10 () (_ BitVec 32))
(declare-fun dst_reg_22_7 () (_ BitVec 64))
(declare-fun dst_reg_22_6 () (_ BitVec 64))
(declare-fun dst_reg_22_3 () (_ BitVec 32))
(declare-fun dst_reg_22_2 () (_ BitVec 32))
(declare-fun dst_reg_22_1 () (_ BitVec 32))
(declare-fun dst_reg_22_0 () (_ BitVec 32))
(declare-fun cmp19.old.i_22_98 () (_ BitVec 1))
(declare-fun storemerge.i20.i_22_94 () (_ BitVec 64))
(declare-fun src_reg1.sroa.13.0_22_92 () (_ BitVec 64))
(declare-fun tobool.not.i.i_22_96 () (_ BitVec 1))
(declare-fun src_reg_22_252 () (_ BitVec 8))
(declare-fun src_reg_22_224 () (_ BitVec 8))
(declare-fun src_reg_22_251 () (_ BitVec 32))
(declare-fun src_reg_22_223 () (_ BitVec 32))
(declare-fun src_reg_22_250 () (_ BitVec 32))
(declare-fun src_reg_22_222 () (_ BitVec 32))
(declare-fun src_reg_22_249 () (_ BitVec 32))
(declare-fun src_reg_22_221 () (_ BitVec 32))
(declare-fun src_reg_22_248 () (_ BitVec 64))
(declare-fun src_reg_22_220 () (_ BitVec 64))
(declare-fun src_reg_22_247 () (_ BitVec 64))
(declare-fun src_reg_22_219 () (_ BitVec 64))
(declare-fun src_reg_22_246 () (_ BitVec 64))
(declare-fun src_reg_22_218 () (_ BitVec 64))
(declare-fun src_reg_22_245 () (_ BitVec 64))
(declare-fun src_reg_22_217 () (_ BitVec 64))
(declare-fun src_reg_22_244 () (_ BitVec 64))
(declare-fun src_reg_22_216 () (_ BitVec 64))
(declare-fun src_reg_22_243 () (_ BitVec 64))
(declare-fun src_reg_22_215 () (_ BitVec 64))
(declare-fun src_reg_22_242 () (_ BitVec 32))
(declare-fun src_reg_22_214 () (_ BitVec 32))
(declare-fun src_reg_22_241 () (_ BitVec 32))
(declare-fun src_reg_22_213 () (_ BitVec 32))
(declare-fun src_reg_22_240 () (_ BitVec 32))
(declare-fun src_reg_22_212 () (_ BitVec 32))
(declare-fun src_reg_22_239 () (_ BitVec 32))
(declare-fun src_reg_22_211 () (_ BitVec 32))
(declare-fun dst_reg_22_238 () (_ BitVec 8))
(declare-fun dst_reg_22_210 () (_ BitVec 8))
(declare-fun dst_reg_22_237 () (_ BitVec 32))
(declare-fun dst_reg_22_209 () (_ BitVec 32))
(declare-fun dst_reg_22_236 () (_ BitVec 32))
(declare-fun dst_reg_22_208 () (_ BitVec 32))
(declare-fun dst_reg_22_235 () (_ BitVec 32))
(declare-fun dst_reg_22_207 () (_ BitVec 32))
(declare-fun dst_reg_22_234 () (_ BitVec 64))
(declare-fun dst_reg_22_206 () (_ BitVec 64))
(declare-fun dst_reg_22_233 () (_ BitVec 64))
(declare-fun dst_reg_22_205 () (_ BitVec 64))
(declare-fun dst_reg_22_232 () (_ BitVec 64))
(declare-fun dst_reg_22_204 () (_ BitVec 64))
(declare-fun dst_reg_22_231 () (_ BitVec 64))
(declare-fun dst_reg_22_203 () (_ BitVec 64))
(declare-fun dst_reg_22_230 () (_ BitVec 64))
(declare-fun dst_reg_22_202 () (_ BitVec 64))
(declare-fun dst_reg_22_229 () (_ BitVec 64))
(declare-fun dst_reg_22_201 () (_ BitVec 64))
(declare-fun dst_reg_22_228 () (_ BitVec 32))
(declare-fun dst_reg_22_200 () (_ BitVec 32))
(declare-fun dst_reg_22_227 () (_ BitVec 32))
(declare-fun dst_reg_22_199 () (_ BitVec 32))
(declare-fun dst_reg_22_226 () (_ BitVec 32))
(declare-fun dst_reg_22_198 () (_ BitVec 32))
(declare-fun dst_reg_22_225 () (_ BitVec 32))
(declare-fun dst_reg_22_197 () (_ BitVec 32))
(declare-fun dst_reg_22_61 () (_ BitVec 32))
(declare-fun dst_reg_22_60 () (_ BitVec 32))
(declare-fun dst_reg_22_52 () (_ BitVec 32))
(declare-fun dst_reg_22_51 () (_ BitVec 32))
(declare-fun dst_reg_22_50 () (_ BitVec 32))
(declare-fun src_reg_22_76 () (_ BitVec 8))
(declare-fun src_reg_22_75 () (_ BitVec 32))
(declare-fun src_reg_22_74 () (_ BitVec 32))
(declare-fun src_reg_22_73 () (_ BitVec 32))
(declare-fun src_reg_22_72 () (_ BitVec 64))
(declare-fun src_reg_22_71 () (_ BitVec 64))
(declare-fun src_reg_22_70 () (_ BitVec 64))
(declare-fun src_reg_22_69 () (_ BitVec 64))
(declare-fun src_reg_22_68 () (_ BitVec 64))
(declare-fun src_reg_22_67 () (_ BitVec 64))
(declare-fun src_reg_22_66 () (_ BitVec 32))
(declare-fun src_reg_22_65 () (_ BitVec 32))
(declare-fun src_reg_22_64 () (_ BitVec 32))
(declare-fun src_reg_22_63 () (_ BitVec 32))
(declare-fun cmp14.not.i.not_22_97 () (_ BitVec 1))
(declare-fun dst_reg_22_62 () (_ BitVec 8))
(declare-fun dst_reg_22_59 () (_ BitVec 32))
(declare-fun cond35.i330.i_22_134 () (_ BitVec 64))
(declare-fun and.i.i290.i_22_124 () (_ BitVec 64))
(declare-fun and.i1.i.i_22_193 () (_ BitVec 64))
(declare-fun and4.i.i.i_22_196 () (_ BitVec 64))
(declare-fun cmp.i.i.i.i_22_138 () (_ BitVec 1))
(declare-fun and8.i.i_22_47 () (_ BitVec 64))
(declare-fun and6.i.i_22_45 () (_ BitVec 64))
(declare-fun if.then.i.i_coerce_reg_to_size.exit.i_22_78 () Bool)
(declare-fun if.else.i.i_coerce_reg_to_size.exit.i_22_77 () Bool)
(declare-fun dst_reg_22_58 () (_ BitVec 64))
(declare-fun dst_reg_22_57 () (_ BitVec 64))
(declare-fun dst_reg_22_56 () (_ BitVec 64))
(declare-fun dst_reg_22_55 () (_ BitVec 64))
(declare-fun dst_reg_22_54 () (_ BitVec 64))
(declare-fun dst_reg_22_53 () (_ BitVec 64))
(declare-fun dst_reg_22_49 () (_ BitVec 32))
(declare-fun and6.i.i6.i_22_83 () (_ BitVec 64))
(declare-fun and8.i17.i_22_90 () (_ BitVec 64))
(declare-fun cmp.i15.i_22_86 () (_ BitVec 1))
(declare-fun and6.i16.i_22_88 () (_ BitVec 64))
(declare-fun i25.i13.i_22_84 () (_ BitVec 64))
(declare-fun i27.i.i_22_81 () (_ BitVec 64))
(declare-fun storemerge.i.i_22_79 () (_ BitVec 64))
(declare-fun add.i.i.i344.i_22_177 () (_ BitVec 32))
(declare-fun i_22_179 () (_ BitVec 32))
(declare-fun sub28.i.i.i.i.i_22_174 () (_ BitVec 32))
(declare-fun num.5.i.i.i.i.i_22_176 () (_ BitVec 32))
(declare-fun num.4.i.i.i.i.i_22_171 () (_ BitVec 32))
(declare-fun tobool26.not18.i.i.i.i.i_22_173 () (_ BitVec 1))
(declare-fun word.addr.4.i.i.i.i.i_22_170 () (_ BitVec 64))
(declare-fun num.3.i.i.i.i.i_22_163 () (_ BitVec 32))
(declare-fun sub22.i.i.i.i.i_22_167 () (_ BitVec 32))
(declare-fun tobool20.not.i.i.i.i.i_22_165 () (_ BitVec 1))
(declare-fun word.addr.3.i.i.i.i.i_22_162 () (_ BitVec 64))
(declare-fun shl23.i.i.i.i.i_22_169 () (_ BitVec 64))
(declare-fun num.2.i.i.i.i.i_22_155 () (_ BitVec 32))
(declare-fun sub16.i.i.i.i.i_22_159 () (_ BitVec 32))
(declare-fun tobool14.not.i.i.i.i.i_22_157 () (_ BitVec 1))
(declare-fun word.addr.2.i.i.i.i.i_22_154 () (_ BitVec 64))
(declare-fun shl17.i.i.i.i.i_22_161 () (_ BitVec 64))
(declare-fun num.1.i.i.i.i.i_22_147 () (_ BitVec 32))
(declare-fun sub10.i.i.i.i.i_22_151 () (_ BitVec 32))
(declare-fun tobool8.not.i.i.i.i.i_22_149 () (_ BitVec 1))
(declare-fun word.addr.1.i.i.i.i.i_22_144 () (_ BitVec 64))
(declare-fun shl11.i.i.i.i.i_22_153 () (_ BitVec 64))
(declare-fun tobool2.not.i.i.i.i.i_22_140 () (_ BitVec 1))
(declare-fun word.addr.1.i.i.i.i.i.v_22_143 () (_ BitVec 64))
(declare-fun xor.i.i.i_22_136 () (_ BitVec 64))
(declare-fun or8.i322.i_22_131 () (_ BitVec 64))
(declare-fun cond14.i323.i_22_132 () (_ BitVec 64))
(declare-fun and6.i.i291.i_22_126 () (_ BitVec 64))
(declare-fun i20.i289.i_22_122 () (_ BitVec 64))
(declare-fun i18.i287.i_22_121 () (_ BitVec 64))
(declare-fun sw.default.i___reg_bound_offset.exit.i_22_181 () Bool)
(declare-fun if.end.i.i.i.i___reg_bound_offset.exit.i_22_180 () Bool)
(declare-fun not.i.i.i_22_195 () (_ BitVec 64))
(declare-fun retval.sroa.3.0.i.i.i_22_192 () (_ BitVec 64))
(declare-fun sub.i.i.i_22_190 () (_ BitVec 64))
(declare-fun cmp.i.i.i_22_185 () (_ BitVec 1))
(declare-fun notmask.i.i.i_22_188 () (_ BitVec 64))
(declare-fun sh_prom.i.i.i_22_186 () (_ BitVec 64))
(declare-fun retval.0.i.i.i.i_22_182 () (_ BitVec 32))
(assert (let ((a!1 (and (= tobool.not.i.i_22_96 #b0)
                (or (= cmp.i.i_22_43 #b0) (= cmp.i.i_22_43 #b1))))
      (a!2 (and (= tobool.not.i.i_22_96 #b1)
                (or (= cmp.i.i_22_43 #b0) (= cmp.i.i_22_43 #b1))))
      (a!8 (and (= #x0000000000000000 i18.i287.i_22_121)
                (= #xffffffffffffffff i20.i289.i_22_122)
                (= and.i.i290.i_22_124
                   (bvand i18.i287.i_22_121 #x00000000ffffffff))
                (= and6.i.i291.i_22_126
                   (bvand i20.i289.i_22_122 #x00000000ffffffff))
                (= or8.i322.i_22_131
                   (bvor and6.i.i291.i_22_126 and.i.i290.i_22_124))
                (= cond14.i323.i_22_132
                   (ite (bvsle or8.i322.i_22_131 #x00000000ffffffff)
                        or8.i322.i_22_131
                        #x00000000ffffffff))
                (= cond35.i330.i_22_134
                   (ite (bvule or8.i322.i_22_131 #x00000000ffffffff)
                        or8.i322.i_22_131
                        #x00000000ffffffff))
                (= xor.i.i.i_22_136
                   (bvxor and.i.i290.i_22_124 cond35.i330.i_22_134))
                (ite (= xor.i.i.i_22_136 #x0000000000000000)
                     (= cmp.i.i.i.i_22_138 #b1)
                     (= cmp.i.i.i.i_22_138 #b0))))
      (a!11 (and (=> if.else.i.i_coerce_reg_to_size.exit.i_22_77
                     (= storemerge.i.i_22_79 #x00000000ffffffff))
                 (=> if.then.i.i_coerce_reg_to_size.exit.i_22_78
                     (= storemerge.i.i_22_79 and8.i.i_22_47))
                 (= dst_reg_22_57 i27.i.i_22_81)
                 (= and6.i.i6.i_22_83
                    (bvand src_reg1.sroa.6.0.copyload_22_30 #x00000000ffffffff))
                 (= i25.i13.i_22_84
                    (bvxor src_reg1.sroa.18.0.copyload_22_32
                           src_reg1.sroa.13.0.copyload_22_31))
                 (ite (bvult i25.i13.i_22_84 #x0000000100000000)
                      (= cmp.i15.i_22_86 #b1)
                      (= cmp.i15.i_22_86 #b0))
                 (= and6.i16.i_22_88
                    (bvand src_reg1.sroa.13.0.copyload_22_31 #x00000000ffffffff))
                 (= and8.i17.i_22_90
                    (bvand src_reg1.sroa.18.0.copyload_22_32 #x00000000ffffffff))
                 (ite (= cmp.i15.i_22_86 #b1)
                      (= src_reg1.sroa.13.0_22_92 and6.i16.i_22_88)
                      (= src_reg1.sroa.13.0_22_92 #x0000000000000000))
                 (ite (= cmp.i15.i_22_86 #b1)
                      (= storemerge.i20.i_22_94 and8.i17.i_22_90)
                      (= storemerge.i20.i_22_94 #x00000000ffffffff))
                 (ite (= and6.i.i6.i_22_83 #x0000000000000000)
                      (= tobool.not.i.i_22_96 #b1)
                      (= tobool.not.i.i_22_96 #b0))
                 (=> (= cmp.i.i_22_43 #b1)
                     (and (= #x00000001 src_reg_22_63)
                          (= src_reg_22_15 src_reg_22_64)
                          (= src_reg_22_16 src_reg_22_65)
                          (= src_reg_22_17 src_reg_22_66)
                          (= src_reg_22_18 src_reg_22_67)
                          (= src_reg_22_19 src_reg_22_68)
                          (= src_reg_22_20 src_reg_22_69)
                          (= src_reg_22_21 src_reg_22_70)
                          (= src_reg_22_22 src_reg_22_71)
                          (= src_reg_22_23 src_reg_22_72)
                          (= src_reg_22_24 src_reg_22_73)
                          (= src_reg_22_25 src_reg_22_74)
                          (= src_reg_22_26 src_reg_22_75)
                          (= src_reg_22_27 src_reg_22_76)
                          (= #x00000001 dst_reg_22_49)
                          (= dst_reg_22_1 dst_reg_22_50)
                          (= dst_reg_22_2 dst_reg_22_51)
                          (= dst_reg_22_3 dst_reg_22_52)
                          (= and.i.i.i_22_36 dst_reg_22_53)
                          (= and6.i.i.i_22_38 dst_reg_22_54)
                          (= dst_reg_22_6 dst_reg_22_55)
                          (= dst_reg_22_7 dst_reg_22_56)
                          (= and6.i.i_22_45 dst_reg_22_57)
                          (= dst_reg_22_9 dst_reg_22_58)
                          (= dst_reg_22_10 dst_reg_22_59)
                          (= dst_reg_22_11 dst_reg_22_60)
                          (= dst_reg_22_12 dst_reg_22_61)
                          (= dst_reg_22_13 dst_reg_22_62)))
                 (=> (= cmp.i.i_22_43 #b0)
                     (and (= #x00000001 src_reg_22_63)
                          (= src_reg_22_15 src_reg_22_64)
                          (= src_reg_22_16 src_reg_22_65)
                          (= src_reg_22_17 src_reg_22_66)
                          (= src_reg_22_18 src_reg_22_67)
                          (= src_reg_22_19 src_reg_22_68)
                          (= src_reg_22_20 src_reg_22_69)
                          (= src_reg_22_21 src_reg_22_70)
                          (= src_reg_22_22 src_reg_22_71)
                          (= src_reg_22_23 src_reg_22_72)
                          (= src_reg_22_24 src_reg_22_73)
                          (= src_reg_22_25 src_reg_22_74)
                          (= src_reg_22_26 src_reg_22_75)
                          (= src_reg_22_27 src_reg_22_76)
                          (= #x00000001 dst_reg_22_49)
                          (= dst_reg_22_1 dst_reg_22_50)
                          (= dst_reg_22_2 dst_reg_22_51)
                          (= dst_reg_22_3 dst_reg_22_52)
                          (= and.i.i.i_22_36 dst_reg_22_53)
                          (= and6.i.i.i_22_38 dst_reg_22_54)
                          (= dst_reg_22_6 dst_reg_22_55)
                          (= dst_reg_22_7 dst_reg_22_56)
                          (= #x0000000000000000 dst_reg_22_57)
                          (= dst_reg_22_9 dst_reg_22_58)
                          (= dst_reg_22_10 dst_reg_22_59)
                          (= dst_reg_22_11 dst_reg_22_60)
                          (= dst_reg_22_12 dst_reg_22_61)
                          (= dst_reg_22_13 dst_reg_22_62)))
                 (= if.else.i.i_coerce_reg_to_size.exit.i_22_77
                    (= cmp.i.i_22_43 #b0))
                 (= if.then.i.i_coerce_reg_to_size.exit.i_22_78
                    (= cmp.i.i_22_43 #b1))))
      (a!12 (=> (= cmp.i.i_22_43 #b1)
                (and (= and6.i.i_22_45 (bvand i23.i.i_22_39 #x00000000ffffffff))
                     (= and8.i.i_22_47 (bvand i24.i.i_22_40 #x00000000ffffffff)))))
      (a!14 (and (= src_reg_22_63 src_reg_22_211)
                 (= src_reg_22_64 src_reg_22_212)
                 (= src_reg_22_65 src_reg_22_213)
                 (= src_reg_22_66 src_reg_22_214)
                 (= src_reg_22_67 src_reg_22_215)
                 (= src_reg_22_68 src_reg_22_216)
                 (= src_reg_22_69 src_reg_22_217)
                 (= src_reg_22_70 src_reg_22_218)
                 (= src_reg_22_71 src_reg_22_219)
                 (= src_reg_22_72 src_reg_22_220)
                 (= src_reg_22_73 src_reg_22_221)
                 (= src_reg_22_74 src_reg_22_222)
                 (= src_reg_22_75 src_reg_22_223)
                 (= src_reg_22_76 src_reg_22_224)
                 (= #x00000001 dst_reg_22_197)
                 (= dst_reg_22_50 dst_reg_22_198)
                 (= dst_reg_22_51 dst_reg_22_199)
                 (= dst_reg_22_52 dst_reg_22_200)
                 (= #x0000000000000000 dst_reg_22_201)
                 (= #xffffffffffffffff dst_reg_22_202)
                 (= #x8000000000000000 dst_reg_22_203)
                 (= #x7fffffffffffffff dst_reg_22_204)
                 (= #x0000000000000000 dst_reg_22_205)
                 (= #xffffffffffffffff dst_reg_22_206)
                 (= #x00000000 dst_reg_22_207)
                 (= dst_reg_22_60 dst_reg_22_208)
                 (= dst_reg_22_61 dst_reg_22_209)
                 (= #x01 dst_reg_22_210))))
(let ((a!3 (or (and (= cmp19.old.i_22_98 #b0) a!1)
               (and (= cmp14.not.i.not_22_97 #b1) a!2)))
      (a!9 (=> a!2
               (and (ite (= src_reg1.sroa.13.0_22_92 storemerge.i20.i_22_94)
                         (= cmp14.not.i.not_22_97 #b1)
                         (= cmp14.not.i.not_22_97 #b0)))))
      (a!13 (or (and (= cmp19.old.i_22_98 #b1) a!1)
                (and (= cmp14.not.i.not_22_97 #b0) a!2)))
      (a!17 (=> a!1
                (and (ite (bvugt src_reg1.sroa.13.0_22_92
                                 storemerge.i20.i_22_94)
                          (= cmp19.old.i_22_98 #b1)
                          (= cmp19.old.i_22_98 #b0))))))
(let ((a!4 (or (and (= cmp.i.i.i.i_22_138 #b0)
                    (and (= tobool.not.i.i_22_96 #b1) a!3))
               (and (= cmp.i.i.i.i_22_138 #b1)
                    (and (= tobool.not.i.i_22_96 #b1) a!3))))
      (a!5 (= if.end.i.i.i.i___reg_bound_offset.exit.i_22_180
              (and (= cmp.i.i.i.i_22_138 #b0)
                   (and (= tobool.not.i.i_22_96 #b1) a!3))))
      (a!6 (= sw.default.i___reg_bound_offset.exit.i_22_181
              (and (= cmp.i.i.i.i_22_138 #b1)
                   (and (= tobool.not.i.i_22_96 #b1) a!3))))
      (a!10 (=> (and (= cmp.i.i.i.i_22_138 #b0)
                     (and (= tobool.not.i.i_22_96 #b1) a!3))
                (and (ite (bvult xor.i.i.i_22_136 #x0000000000010000)
                          (= tobool2.not.i.i.i.i.i_22_140 #b1)
                          (= tobool2.not.i.i.i.i.i_22_140 #b0))
                     (ite (= tobool2.not.i.i.i.i.i_22_140 #b1)
                          (= word.addr.1.i.i.i.i.i.v_22_143 #x0000000000000030)
                          (= word.addr.1.i.i.i.i.i.v_22_143 #x0000000000000020))
                     (= word.addr.1.i.i.i.i.i_22_144
                        (bvshl xor.i.i.i_22_136 word.addr.1.i.i.i.i.i.v_22_143))
                     (ite (= tobool2.not.i.i.i.i.i_22_140 #b1)
                          (= num.1.i.i.i.i.i_22_147 #x0000000f)
                          (= num.1.i.i.i.i.i_22_147 #x0000001f))
                     (ite (bvult word.addr.1.i.i.i.i.i_22_144
                                 #x0100000000000000)
                          (= tobool8.not.i.i.i.i.i_22_149 #b1)
                          (= tobool8.not.i.i.i.i.i_22_149 #b0))
                     (= sub10.i.i.i.i.i_22_151
                        (bvadd num.1.i.i.i.i.i_22_147 #xfffffff8))
                     (= shl11.i.i.i.i.i_22_153
                        (bvshl word.addr.1.i.i.i.i.i_22_144 #x0000000000000008))
                     (ite (= tobool8.not.i.i.i.i.i_22_149 #b1)
                          (= word.addr.2.i.i.i.i.i_22_154
                             shl11.i.i.i.i.i_22_153)
                          (= word.addr.2.i.i.i.i.i_22_154
                             word.addr.1.i.i.i.i.i_22_144))
                     (ite (= tobool8.not.i.i.i.i.i_22_149 #b1)
                          (= num.2.i.i.i.i.i_22_155 sub10.i.i.i.i.i_22_151)
                          (= num.2.i.i.i.i.i_22_155 num.1.i.i.i.i.i_22_147))
                     (ite (bvult word.addr.2.i.i.i.i.i_22_154
                                 #x1000000000000000)
                          (= tobool14.not.i.i.i.i.i_22_157 #b1)
                          (= tobool14.not.i.i.i.i.i_22_157 #b0))
                     (= sub16.i.i.i.i.i_22_159
                        (bvadd num.2.i.i.i.i.i_22_155 #xfffffffc))
                     (= shl17.i.i.i.i.i_22_161
                        (bvshl word.addr.2.i.i.i.i.i_22_154 #x0000000000000004))
                     (ite (= tobool14.not.i.i.i.i.i_22_157 #b1)
                          (= word.addr.3.i.i.i.i.i_22_162
                             shl17.i.i.i.i.i_22_161)
                          (= word.addr.3.i.i.i.i.i_22_162
                             word.addr.2.i.i.i.i.i_22_154))
                     (ite (= tobool14.not.i.i.i.i.i_22_157 #b1)
                          (= num.3.i.i.i.i.i_22_163 sub16.i.i.i.i.i_22_159)
                          (= num.3.i.i.i.i.i_22_163 num.2.i.i.i.i.i_22_155))
                     (ite (bvult word.addr.3.i.i.i.i.i_22_162
                                 #x4000000000000000)
                          (= tobool20.not.i.i.i.i.i_22_165 #b1)
                          (= tobool20.not.i.i.i.i.i_22_165 #b0))
                     (= sub22.i.i.i.i.i_22_167
                        (bvadd num.3.i.i.i.i.i_22_163 #x000000fe))
                     (= shl23.i.i.i.i.i_22_169
                        (bvshl word.addr.3.i.i.i.i.i_22_162 #x0000000000000002))
                     (ite (= tobool20.not.i.i.i.i.i_22_165 #b1)
                          (= word.addr.4.i.i.i.i.i_22_170
                             shl23.i.i.i.i.i_22_169)
                          (= word.addr.4.i.i.i.i.i_22_170
                             word.addr.3.i.i.i.i.i_22_162))
                     (ite (= tobool20.not.i.i.i.i.i_22_165 #b1)
                          (= num.4.i.i.i.i.i_22_171 sub22.i.i.i.i.i_22_167)
                          (= num.4.i.i.i.i.i_22_171 num.3.i.i.i.i.i_22_163))
                     (ite (bvsgt word.addr.4.i.i.i.i.i_22_170
                                 #xffffffffffffffff)
                          (= tobool26.not18.i.i.i.i.i_22_173 #b1)
                          (= tobool26.not18.i.i.i.i.i_22_173 #b0))
                     (= sub28.i.i.i.i.i_22_174
                        ((_ sign_extend 31) tobool26.not18.i.i.i.i.i_22_173))
                     (= num.5.i.i.i.i.i_22_176
                        (bvadd num.4.i.i.i.i.i_22_171 #x00000001))
                     (= add.i.i.i344.i_22_177
                        (bvadd num.5.i.i.i.i.i_22_176 sub28.i.i.i.i.i_22_174))
                     (= i_22_179 (bvand add.i.i.i344.i_22_177 #x000000ff))))))
(let ((a!7 (=> a!4
               (and (=> if.end.i.i.i.i___reg_bound_offset.exit.i_22_180
                        (= retval.0.i.i.i.i_22_182 i_22_179))
                    (=> sw.default.i___reg_bound_offset.exit.i_22_181
                        (= retval.0.i.i.i.i_22_182 #x00000000))
                    (ite (bvugt retval.0.i.i.i.i_22_182 #x0000003f)
                         (= cmp.i.i.i_22_185 #b1)
                         (= cmp.i.i.i_22_185 #b0))
                    (= sh_prom.i.i.i_22_186
                       ((_ zero_extend 32) retval.0.i.i.i.i_22_182))
                    (= notmask.i.i.i_22_188
                       (bvshl #xffffffffffffffff sh_prom.i.i.i_22_186))
                    (= sub.i.i.i_22_190
                       (bvxor notmask.i.i.i_22_188 #xffffffffffffffff))
                    (ite (= cmp.i.i.i_22_185 #b1)
                         (= retval.sroa.3.0.i.i.i_22_192 #x00000000ffffffff)
                         (= retval.sroa.3.0.i.i.i_22_192 sub.i.i.i_22_190))
                    (= and.i1.i.i_22_193
                       (bvand retval.sroa.3.0.i.i.i_22_192 and6.i.i291.i_22_126))
                    (= not.i.i.i_22_195
                       (bvxor and.i1.i.i_22_193 #xffffffffffffffff))
                    (= and4.i.i.i_22_196
                       (bvand and.i.i290.i_22_124 not.i.i.i_22_195))
                    a!5
                    a!6)))
      (a!15 (and (=> a!4
                     (and (= src_reg_22_63 src_reg_22_211)
                          (= src_reg_22_64 src_reg_22_212)
                          (= src_reg_22_65 src_reg_22_213)
                          (= src_reg_22_66 src_reg_22_214)
                          (= src_reg_22_67 src_reg_22_215)
                          (= src_reg_22_68 src_reg_22_216)
                          (= src_reg_22_69 src_reg_22_217)
                          (= src_reg_22_70 src_reg_22_218)
                          (= src_reg_22_71 src_reg_22_219)
                          (= src_reg_22_72 src_reg_22_220)
                          (= src_reg_22_73 src_reg_22_221)
                          (= src_reg_22_74 src_reg_22_222)
                          (= src_reg_22_75 src_reg_22_223)
                          (= src_reg_22_76 src_reg_22_224)
                          (= #x00000001 dst_reg_22_197)
                          (= dst_reg_22_50 dst_reg_22_198)
                          (= dst_reg_22_51 dst_reg_22_199)
                          (= dst_reg_22_52 dst_reg_22_200)
                          (= and4.i.i.i_22_196 dst_reg_22_201)
                          (= and.i1.i.i_22_193 dst_reg_22_202)
                          (= and.i.i290.i_22_124 dst_reg_22_203)
                          (= cond35.i330.i_22_134 dst_reg_22_204)
                          (= and.i.i290.i_22_124 dst_reg_22_205)
                          (= cond35.i330.i_22_134 dst_reg_22_206)
                          (= dst_reg_22_59 dst_reg_22_207)
                          (= dst_reg_22_60 dst_reg_22_208)
                          (= dst_reg_22_61 dst_reg_22_209)
                          (= dst_reg_22_62 dst_reg_22_210)))
                 (=> (and (= tobool.not.i.i_22_96 #b0) a!3) a!14)
                 (=> a!13 a!14)
                 (= dst_reg_22_197 dst_reg_22_225)
                 (= dst_reg_22_198 dst_reg_22_226)
                 (= dst_reg_22_199 dst_reg_22_227)
                 (= dst_reg_22_200 dst_reg_22_228)
                 (= dst_reg_22_201 dst_reg_22_229)
                 (= dst_reg_22_202 dst_reg_22_230)
                 (= dst_reg_22_203 dst_reg_22_231)
                 (= dst_reg_22_204 dst_reg_22_232)
                 (= dst_reg_22_205 dst_reg_22_233)
                 (= dst_reg_22_206 dst_reg_22_234)
                 (= dst_reg_22_207 dst_reg_22_235)
                 (= dst_reg_22_208 dst_reg_22_236)
                 (= dst_reg_22_209 dst_reg_22_237)
                 (= dst_reg_22_210 dst_reg_22_238)
                 (= src_reg_22_211 src_reg_22_239)
                 (= src_reg_22_212 src_reg_22_240)
                 (= src_reg_22_213 src_reg_22_241)
                 (= src_reg_22_214 src_reg_22_242)
                 (= src_reg_22_215 src_reg_22_243)
                 (= src_reg_22_216 src_reg_22_244)
                 (= src_reg_22_217 src_reg_22_245)
                 (= src_reg_22_218 src_reg_22_246)
                 (= src_reg_22_219 src_reg_22_247)
                 (= src_reg_22_220 src_reg_22_248)
                 (= src_reg_22_221 src_reg_22_249)
                 (= src_reg_22_222 src_reg_22_250)
                 (= src_reg_22_223 src_reg_22_251)
                 (= src_reg_22_224 src_reg_22_252))))
(let ((a!16 (=> (or a!4 (and (= tobool.not.i.i_22_96 #b0) a!3) a!13) a!15)))
  (and a!7
       (=> (and (= tobool.not.i.i_22_96 #b1) a!3) a!8)
       a!9
       a!10
       (=> (or (= cmp.i.i_22_43 #b0) (= cmp.i.i_22_43 #b1)) a!11)
       a!12
       a!16
       a!17
       (= dst_reg_22_0 dst_reg_22_0)
       (= dst_reg_22_1 dst_reg_22_1)
       (= dst_reg_22_2 dst_reg_22_2)
       (= dst_reg_22_3 dst_reg_22_3)
       (= dst_reg_22_4 dst_reg_22_4)
       (= dst_reg_22_5 dst_reg_22_5)
       (= dst_reg_22_6 dst_reg_22_6)
       (= dst_reg_22_7 dst_reg_22_7)
       (= dst_reg_22_8 dst_reg_22_8)
       (= dst_reg_22_9 dst_reg_22_9)
       (= dst_reg_22_10 dst_reg_22_10)
       (= dst_reg_22_11 dst_reg_22_11)
       (= dst_reg_22_12 dst_reg_22_12)
       (= dst_reg_22_13 dst_reg_22_13)
       (= src_reg_22_14 src_reg_22_14)
       (= src_reg_22_15 src_reg_22_15)
       (= src_reg_22_16 src_reg_22_16)
       (= src_reg_22_17 src_reg_22_17)
       (= src_reg_22_18 src_reg_22_18)
       (= src_reg_22_19 src_reg_22_19)
       (= src_reg_22_20 src_reg_22_20)
       (= src_reg_22_21 src_reg_22_21)
       (= src_reg_22_22 src_reg_22_22)
       (= src_reg_22_23 src_reg_22_23)
       (= src_reg_22_24 src_reg_22_24)
       (= src_reg_22_25 src_reg_22_25)
       (= src_reg_22_26 src_reg_22_26)
       (= src_reg_22_27 src_reg_22_27)
       (= src_reg_22_19 src_reg1.sroa.6.0.copyload_22_30)
       (= src_reg_22_22 src_reg1.sroa.13.0.copyload_22_31)
       (= src_reg_22_23 src_reg1.sroa.18.0.copyload_22_32)
       (= dst_reg_22_4 i18.i.i_22_33)
       (= dst_reg_22_5 i20.i.i_22_34)
       (= and.i.i.i_22_36 (bvand i18.i.i_22_33 #x00000000ffffffff))
       (= and6.i.i.i_22_38 (bvand i20.i.i_22_34 #x00000000ffffffff))
       (= dst_reg_22_8 i23.i.i_22_39)
       (= dst_reg_22_9 i24.i.i_22_40)
       (= i25.i.i_22_41 (bvxor i24.i.i_22_40 i23.i.i_22_39))
       (ite (bvult i25.i.i_22_41 #x0000000100000000)
            (= cmp.i.i_22_43 #b1)
            (= cmp.i.i_22_43 #b0)))))))))

;{"dst_reg":["dst_reg_22_0",[""],"dst_reg_22_1","dst_reg_22_2","dst_reg_22_3",["dst_reg_22_4","dst_reg_22_5"],"dst_reg_22_6","dst_reg_22_7","dst_reg_22_8","dst_reg_22_9","","","dst_reg_22_10","dst_reg_22_11","dst_reg_22_12"],"src_reg":["src_reg_22_14",[""],"src_reg_22_15","src_reg_22_16","src_reg_22_17",["src_reg_22_18","src_reg_22_19"],"src_reg_22_20","src_reg_22_21","src_reg_22_22","src_reg_22_23","","","src_reg_22_24","src_reg_22_25","src_reg_22_26"]}
;{"dst_reg":["dst_reg_22_225",[""],"dst_reg_22_226","dst_reg_22_227","dst_reg_22_228",["dst_reg_22_229","dst_reg_22_230"],"dst_reg_22_231","dst_reg_22_232","dst_reg_22_233","dst_reg_22_234","","","dst_reg_22_235","dst_reg_22_236","dst_reg_22_237"],"src_reg":["src_reg_22_239",[""],"src_reg_22_240","src_reg_22_241","src_reg_22_242",["src_reg_22_243","src_reg_22_244"],"src_reg_22_245","src_reg_22_246","src_reg_22_247","src_reg_22_248","","","src_reg_22_249","src_reg_22_250","src_reg_22_251"]}
